projet_m2_wvcp/projet_m2_wvcp/original_wvcp_dzn/p36.clq.dzn
cliques=[{7,0,17,24,63,56,46,73,92,30,82,39},{9,25,32,1,85,65,49,42,95,58},{10,43,33,19,50,2,97,75,67,60},{0,1,2,6,5,3,4},{0,1,2,6,5,3,4},{0,1,2,6,5,3,4},{0,1,2,6,5,3,4},{8,7,9,10,12,13,14,15,11},{8,7,9,10,12,13,14,15,11},{8,7,9,10,12,13,14,15,11},{8,7,9,10,12,13,14,15,11},{8,7,9,10,12,13,14,15,11},{8,7,9,10,12,13,14,15,11},{8,7,9,10,12,13,14,15,11},{8,7,9,10,12,13,14,15,11},{8,7,9,10,12,13,14,15,11},{18,19,21,22,17,16,20},{18,19,21,22,17,16,20},{8,18,48,94,84,64,74,41,57},{18,19,21,22,17,16,20},{18,19,21,22,17,16,20},{18,19,21,22,17,16,20},{18,19,21,22,17,16,20},{25,26,24,23,28,27},{7,0,17,24,63,56,46,73,92,30,82,39},{9,25,32,1,85,65,49,42,95,58},{25,26,24,23,28,27},{25,26,24,23,28,27},{80,22,90,15,55,45,37,62,100,6,71,28},{33,32,37,34,35,29,30,31,36},{7,0,17,24,63,56,46,73,92,30,82,39},{33,32,37,34,35,29,30,31,36},{9,25,32,1,85,65,49,42,95,58},{10,43,33,19,50,2,97,75,67,60},{33,32,37,34,35,29,30,31,36},{33,32,37,34,35,29,30,31,36},{70,21,14,79,99,89,5,54,36},{80,22,90,15,55,45,37,62,100,6,71,28},{43,45,44,42,41,38,39,40},{7,0,17,24,63,56,46,73,92,30,82,39},{43,45,44,42,41,38,39,40},{8,18,48,94,84,64,74,41,57},{9,25,32,1,85,65,49,42,95,58},{10,43,33,19,50,2,97,75,67,60},{43,45,44,42,41,38,39,40},{80,22,90,15,55,45,37,62,100,6,71,28},{7,0,17,24,63,56,46,73,92,30,82,39},{51,55,52,50,49,48,53,46,47,54},{8,18,48,94,84,64,74,41,57},{9,25,32,1,85,65,49,42,95,58},{10,43,33,19,50,2,97,75,67,60},{51,55,52,50,49,48,53,46,47,54},{12,61,52,20,68,3,87,77},{69,13,35,44,53,78,4,27,88},{70,21,14,79,99,89,5,54,36},{80,22,90,15,55,45,37,62,100,6,71,28},{7,0,17,24,63,56,46,73,92,30,82,39},{8,18,48,94,84,64,74,41,57},{9,25,32,1,85,65,49,42,95,58},{61,62,56,57,59,58,60},{10,43,33,19,50,2,97,75,67,60},{12,61,52,20,68,3,87,77},{80,22,90,15,55,45,37,62,100,6,71,28},{7,0,17,24,63,56,46,73,92,30,82,39},{8,18,48,94,84,64,74,41,57},{9,25,32,1,85,65,49,42,95,58},{70,69,65,68,71,63,67,66,64},{10,43,33,19,50,2,97,75,67,60},{12,61,52,20,68,3,87,77},{70,69,65,68,71,63,67,66,64},{70,21,14,79,99,89,5,54,36},{80,22,90,15,55,45,37,62,100,6,71,28},{80,79,75,78,73,74,72,77,76},{7,0,17,24,63,56,46,73,92,30,82,39},{8,18,48,94,84,74,64,41,57},{10,43,33,19,50,2,97,75,67,60},{80,79,75,78,73,74,72,77,76},{12,61,52,20,68,3,87,77},{69,13,35,44,53,78,4,27,88},{70,21,79,14,99,89,5,54,36},{80,22,90,15,55,45,37,62,100,6,71,28},{90,85,89,81,84,88,87,83,82,86},{7,0,17,24,63,56,46,73,92,30,82,39},{90,85,89,81,84,88,87,83,82,86},{8,18,48,94,84,64,74,41,57},{9,25,32,1,85,65,49,42,95,58},{90,85,89,81,88,84,87,83,82,86},{12,61,52,20,68,3,87,77},{69,13,35,44,53,78,4,27,88},{70,21,14,79,99,89,5,54,36},{80,22,90,15,55,45,37,62,100,6,71,28},{100,99,94,91,97,96,92,93,95,98},{7,0,17,24,63,56,46,73,92,30,82,39},{100,99,94,91,97,96,92,93,95,98},{8,18,94,48,84,64,74,41,57},{9,25,32,1,85,65,49,42,95,58},{100,99,94,91,97,96,92,93,95,98},{10,43,33,19,50,2,97,75,67,60},{51,11,34,26,98,86,76},{70,21,14,79,99,89,5,54,36},{80,22,90,15,55,45,37,62,100,6,71,28}];
nr_cliques=101;
