projet_m2_wvcp/projet_m2_wvcp/original_wvcp_dzn/p36.dzn
name="p36";
nr_vertices=101;
nr_edges=798;
neighborhoods=[{1,2,3,4,5,6,7,17,24,30,39,46,56,63,73,82,92},{0,2,3,4,5,6,9,25,32,42,49,58,65,85,95},{0,1,3,4,5,6,10,19,33,43,50,60,67,75,97},{0,1,2,4,5,6,12,20,52,61,68,77,87},{0,1,2,3,5,6,13,27,35,44,53,69,78,88},{0,1,2,3,4,6,14,21,36,54,70,79,89,99},{0,1,2,3,4,5,15,22,28,37,45,55,62,71,80,90,100},{0,8,9,10,11,12,13,14,15,17,24,30,39,46,56,63,73,82,92},{7,9,10,11,12,13,14,15,18,41,48,57,64,74,84,94},{1,7,8,10,11,12,13,14,15,25,32,42,49,58,65,85,95},{2,7,8,9,11,12,13,14,15,19,33,43,50,60,67,75,97},{7,8,9,10,12,13,14,15,26,34,51,76,86,98},{3,7,8,9,10,11,13,14,15,20,52,61,68,77,87},{4,7,8,9,10,11,12,14,15,27,35,44,53,69,78,88},{5,7,8,9,10,11,12,13,15,21,36,54,70,79,89,99},{6,7,8,9,10,11,12,13,14,22,28,37,45,55,62,71,80,90,100},{17,18,19,20,21,22,23,29,38,72,81,91},{0,7,16,18,19,20,21,22,24,30,39,46,56,63,73,82,92},{8,16,17,19,20,21,22,41,48,57,64,74,84,94},{2,10,16,17,18,20,21,22,33,43,50,60,67,75,97},{3,12,16,17,18,19,21,22,52,61,68,77,87},{5,14,16,17,18,19,20,22,36,54,70,79,89,99},{6,15,16,17,18,19,20,21,28,37,45,55,62,71,80,90,100},{16,24,25,26,27,28,29,38,72,81,91},{0,7,17,23,25,26,27,28,30,39,46,56,63,73,82,92},{1,9,23,24,26,27,28,32,42,49,58,65,85,95},{11,23,24,25,27,28,34,51,76,86,98},{4,13,23,24,25,26,28,35,44,53,69,78,88},{6,15,22,23,24,25,26,27,37,45,55,62,71,80,90,100},{16,23,30,31,32,33,34,35,36,37,38,72,81,91},{0,7,17,24,29,31,32,33,34,35,36,37,39,46,56,63,73,82,92},{29,30,32,33,34,35,36,37,40,47,83,93},{1,9,25,29,30,31,33,34,35,36,37,42,49,58,65,85,95},{2,10,19,29,30,31,32,34,35,36,37,43,50,60,67,75,97},{11,26,29,30,31,32,33,35,36,37,51,76,86,98},{4,13,27,29,30,31,32,33,34,36,37,44,53,69,78,88},{5,14,21,29,30,31,32,33,34,35,37,54,70,79,89,99},{6,15,22,28,29,30,31,32,33,34,35,36,45,55,62,71,80,90,100},{16,23,29,39,40,41,42,43,44,45,72,81,91},{0,7,17,24,30,38,40,41,42,43,44,45,46,56,63,73,82,92},{31,38,39,41,42,43,44,45,47,83,93},{8,18,38,39,40,42,43,44,45,48,57,64,74,84,94},{1,9,25,32,38,39,40,41,43,44,45,49,58,65,85,95},{2,10,19,33,38,39,40,41,42,44,45,50,60,67,75,97},{4,13,27,35,38,39,40,41,42,43,45,53,69,78,88},{6,15,22,28,37,38,39,40,41,42,43,44,55,62,71,80,90,100},{0,7,17,24,30,39,47,48,49,50,51,52,53,54,55,56,63,73,82,92},{31,40,46,48,49,50,51,52,53,54,55,83,93},{8,18,41,46,47,49,50,51,52,53,54,55,57,64,74,84,94},{1,9,25,32,42,46,47,48,50,51,52,53,54,55,58,65,85,95},{2,10,19,33,43,46,47,48,49,51,52,53,54,55,60,67,75,97},{11,26,34,46,47,48,49,50,52,53,54,55,76,86,98},{3,12,20,46,47,48,49,50,51,53,54,55,61,68,77,87},{4,13,27,35,44,46,47,48,49,50,51,52,54,55,69,78,88},{5,14,21,36,46,47,48,49,50,51,52,53,55,70,79,89,99},{6,15,22,28,37,45,46,47,48,49,50,51,52,53,54,62,71,80,90,100},{0,7,17,24,30,39,46,57,58,59,60,61,62,63,73,82,92},{8,18,41,48,56,58,59,60,61,62,64,74,84,94},{1,9,25,32,42,49,56,57,59,60,61,62,65,85,95},{56,57,58,60,61,62,66,96},{2,10,19,33,43,50,56,57,58,59,61,62,67,75,97},{3,12,20,52,56,57,58,59,60,62,68,77,87},{6,15,22,28,37,45,55,56,57,58,59,60,61,71,80,90,100},{0,7,17,24,30,39,46,56,64,65,66,67,68,69,70,71,73,82,92},{8,18,41,48,57,63,65,66,67,68,69,70,71,74,84,94},{1,9,25,32,42,49,58,63,64,66,67,68,69,70,71,85,95},{59,63,64,65,67,68,69,70,71,96},{2,10,19,33,43,50,60,63,64,65,66,68,69,70,71,75,97},{3,12,20,52,61,63,64,65,66,67,69,70,71,77,87},{4,13,27,35,44,53,63,64,65,66,67,68,70,71,78,88},{5,14,21,36,54,63,64,65,66,67,68,69,71,79,89,99},{6,15,22,28,37,45,55,62,63,64,65,66,67,68,69,70,80,90,100},{16,23,29,38,73,74,75,76,77,78,79,80,81,91},{0,7,17,24,30,39,46,56,63,72,74,75,76,77,78,79,80,82,92},{8,18,41,48,57,64,72,73,75,76,77,78,79,80,84,94},{2,10,19,33,43,50,60,67,72,73,74,76,77,78,79,80,97},{11,26,34,51,72,73,74,75,77,78,79,80,86,98},{3,12,20,52,61,68,72,73,74,75,76,78,79,80,87},{4,13,27,35,44,53,69,72,73,74,75,76,77,79,80,88},{5,14,21,36,54,70,72,73,74,75,76,77,78,80,89,99},{6,15,22,28,37,45,55,62,71,72,73,74,75,76,77,78,79,90,100},{16,23,29,38,72,82,83,84,85,86,87,88,89,90,91},{0,7,17,24,30,39,46,56,63,73,81,83,84,85,86,87,88,89,90,92},{31,40,47,81,82,84,85,86,87,88,89,90,93},{8,18,41,48,57,64,74,81,82,83,85,86,87,88,89,90,94},{1,9,25,32,42,49,58,65,81,82,83,84,86,87,88,89,90,95},{11,26,34,51,76,81,82,83,84,85,87,88,89,90,98},{3,12,20,52,61,68,77,81,82,83,84,85,86,88,89,90},{4,13,27,35,44,53,69,78,81,82,83,84,85,86,87,89,90},{5,14,21,36,54,70,79,81,82,83,84,85,86,87,88,90,99},{6,15,22,28,37,45,55,62,71,80,81,82,83,84,85,86,87,88,89,100},{16,23,29,38,72,81,92,93,94,95,96,97,98,99,100},{0,7,17,24,30,39,46,56,63,73,82,91,93,94,95,96,97,98,99,100},{31,40,47,83,91,92,94,95,96,97,98,99,100},{8,18,41,48,57,64,74,84,91,92,93,95,96,97,98,99,100},{1,9,25,32,42,49,58,65,85,91,92,93,94,96,97,98,99,100},{59,66,91,92,93,94,95,97,98,99,100},{2,10,19,33,43,50,60,67,75,91,92,93,94,95,96,98,99,100},{11,26,34,51,76,86,91,92,93,94,95,96,97,99,100},{5,14,21,36,54,70,79,89,91,92,93,94,95,96,97,98,100},{6,15,22,28,37,45,55,62,71,80,90,91,92,93,94,95,96,97,98,99}];
weights=[1150,200,120,80,50,80,110,1150,2100,900,650,150,400,280,250,150,150,180,2100,450,130,360,350,70,80,900,90,50,60,60,30,20,200,450,90,60,15,120,30,25,25,30,30,650,60,130,40,30,70,80,120,150,130,50,15,130,60,30,10,30,10,400,120,60,30,100,50,50,80,280,360,60,30,40,30,60,10,20,50,250,350,60,25,30,30,100,10,30,30,80,150,70,30,25,70,10,50,60,10,100,110];
